cliques=[{0,1,7,13,16,18,19,21,22,23,26,27,30,31,34,39,41,42},{0,1,7,12,13,16,19,18,21,22,23,26,27,30,31,32,34,42,46,47},{0,2,8,18,19,20,28,30,33,38,39,41,42,43},{2,3,8,20,28,33,36,37,38,39,40,44},{4,5,6},{4,5,6},{4,6,5},{0,1,7,12,13,16,19,18,21,22,23,26,27,30,31,32,34,42,46,47},{0,2,8,18,19,20,28,30,33,38,39,41,42,43},{1,7,9,12,14,16,22,26,35,46},{3,10,11,15,17,25},{3,10,11,15,17,25},{0,1,7,12,13,16,19,18,21,22,23,26,27,30,31,32,34,42,46,47},{0,1,7,13,12,16,18,19,21,22,23,26,27,30,31,32,34,42,46,47},{1,7,12,14,16,19,22,23,26,30,35,41,42,46,47},{3,10,11,15,17,25},{0,1,7,12,13,16,19,18,21,22,23,26,27,30,31,32,34,42,46,47},{3,8,17,25,28,29,37,40},{0,1,7,13,16,18,19,21,22,23,26,27,30,31,34,39,41,42},{0,1,7,13,16,19,18,21,22,23,26,27,30,31,34,39,41,42},{0,2,8,18,19,20,28,30,33,38,39,41,42,43},{0,1,7,13,12,16,18,19,21,22,23,26,27,30,31,32,34,42,46,47},{0,1,7,12,13,16,19,18,21,22,23,26,27,30,31,32,34,42,46,47},{0,1,7,13,12,16,19,18,21,22,23,26,27,30,31,32,34,42,46,47},{0,1,7,13,16,18,19,21,23,24,26,27,30,31,32,34,42,46,47},{3,8,17,25,28,29,37,40},{0,1,7,12,13,16,19,18,21,22,23,26,27,30,31,32,34,42,46,47},{0,1,7,13,12,16,18,19,21,22,23,26,27,30,31,32,34,42,46,47},{0,2,8,18,19,20,28,30,33,38,39,41,42,43},{3,8,20,28,29,33,36,37,38,39,40,44},{0,1,7,13,16,18,19,21,22,23,26,27,30,31,34,39,41,42},{0,1,7,13,12,16,18,19,21,22,23,26,27,30,31,32,34,42,46,47},{0,1,7,13,12,16,18,19,21,22,23,26,27,30,31,32,34,42,46,47},{0,2,8,18,19,20,28,30,33,38,39,41,42,43},{0,1,7,13,12,16,18,19,21,22,23,26,27,30,31,32,34,42,46,47},{0,1,7,12,16,19,18,21,22,23,26,30,31,35,41,42,46,47},{2,8,18,19,20,28,30,33,36,38,39,41,42,43,44},{2,3,8,20,28,33,36,37,38,39,40,44},{0,2,8,18,19,20,28,30,33,38,39,41,42,43},{0,1,7,13,16,18,19,21,22,23,26,27,30,31,34,39,41,42},{2,3,8,20,28,33,36,37,38,39,40,44},{0,1,7,13,16,19,18,21,22,23,26,27,30,31,34,39,41,42},{0,1,7,13,16,19,18,21,22,23,26,27,30,31,34,39,41,42},{0,2,8,19,18,20,28,30,33,38,39,41,42,43},{2,8,18,19,20,28,30,33,36,38,39,41,42,43,44},{0,7,13,16,18,19,21,23,24,26,27,30,31,34,39,41,42,45},{0,1,7,12,13,16,19,18,21,22,23,26,27,30,31,32,34,42,46,47},{0,1,7,12,13,16,19,18,21,22,23,26,27,30,31,32,34,42,47,46}];
nr_cliques=48;
